100
128
14
37
31
55
48
1
49
61
55
4
38
14
46
43
60
34
35
30
17
17
12
63
29
9
44
13
61
1
49
64
28
49
11
57
50
17
49
21
52
10
29
30
2
46
63
29
2
43
9
23
13
25
12
12
9
29
18
13
49
29
21
41
9
15
43
24
17
21
2
21
13
22
39
29
3
2
29
40
11
3
53
2
52
53
49
14
14
21
44
24
41
24
41
33
53
57
24
24
19
23